;---
; .NET regular expressions restricted to 7-bit characters
; membership in intersection of
; (?i:.*(monday|tuesday|wednesday|thursday|friday|saturday|sunday).*)
; (?i:.*(january|february|march|april|may|june|july|august|september|october|november|december).*) 
;---
(declare-const x String)
(assert (str.in_re x (re.inter (re.++ (re.++ re.all (re.union (re.union (re.union (re.union (re.union (re.union (re.++ (re.++ (re.++ (re.++ (re.++ (re.union (str.to_re "M") (str.to_re "m")) (re.union (str.to_re "O") (str.to_re "o"))) (re.union (str.to_re "N") (str.to_re "n"))) (re.union (str.to_re "D") (str.to_re "d"))) (re.union (str.to_re "A") (str.to_re "a"))) (re.union (str.to_re "Y") (str.to_re "y"))) (re.++ (re.++ (re.++ (re.++ (re.++ (re.++ (re.union (str.to_re "T") (str.to_re "t")) (re.union (str.to_re "U") (str.to_re "u"))) (re.union (str.to_re "E") (str.to_re "e"))) (re.union (str.to_re "S") (str.to_re "s"))) (re.union (str.to_re "D") (str.to_re "d"))) (re.union (str.to_re "A") (str.to_re "a"))) (re.union (str.to_re "Y") (str.to_re "y")))) (re.++ (re.++ (re.++ (re.++ (re.++ (re.++ (re.++ (re.++ (re.union (str.to_re "W") (str.to_re "w")) (re.union (str.to_re "E") (str.to_re "e"))) (re.union (str.to_re "D") (str.to_re "d"))) (re.union (str.to_re "N") (str.to_re "n"))) (re.union (str.to_re "E") (str.to_re "e"))) (re.union (str.to_re "S") (str.to_re "s"))) (re.union (str.to_re "D") (str.to_re "d"))) (re.union (str.to_re "A") (str.to_re "a"))) (re.union (str.to_re "Y") (str.to_re "y")))) (re.++ (re.++ (re.++ (re.++ (re.++ (re.++ (re.++ (re.union (str.to_re "T") (str.to_re "t")) (re.union (str.to_re "H") (str.to_re "h"))) (re.union (str.to_re "U") (str.to_re "u"))) (re.union (str.to_re "R") (str.to_re "r"))) (re.union (str.to_re "S") (str.to_re "s"))) (re.union (str.to_re "D") (str.to_re "d"))) (re.union (str.to_re "A") (str.to_re "a"))) (re.union (str.to_re "Y") (str.to_re "y")))) (re.++ (re.++ (re.++ (re.++ (re.++ (re.union (str.to_re "F") (str.to_re "f")) (re.union (str.to_re "R") (str.to_re "r"))) (re.union (str.to_re "I") (str.to_re "i"))) (re.union (str.to_re "D") (str.to_re "d"))) (re.union (str.to_re "A") (str.to_re "a"))) (re.union (str.to_re "Y") (str.to_re "y")))) (re.++ (re.++ (re.++ (re.++ (re.++ (re.++ (re.++ (re.union (str.to_re "S") (str.to_re "s")) (re.union (str.to_re "A") (str.to_re "a"))) (re.union (str.to_re "T") (str.to_re "t"))) (re.union (str.to_re "U") (str.to_re "u"))) (re.union (str.to_re "R") (str.to_re "r"))) (re.union (str.to_re "D") (str.to_re "d"))) (re.union (str.to_re "A") (str.to_re "a"))) (re.union (str.to_re "Y") (str.to_re "y")))) (re.++ (re.++ (re.++ (re.++ (re.++ (re.union (str.to_re "S") (str.to_re "s")) (re.union (str.to_re "U") (str.to_re "u"))) (re.union (str.to_re "N") (str.to_re "n"))) (re.union (str.to_re "D") (str.to_re "d"))) (re.union (str.to_re "A") (str.to_re "a"))) (re.union (str.to_re "Y") (str.to_re "y"))))) re.all) (re.++ (re.++ re.all (re.union (re.union (re.union (re.union (re.union (re.union (re.union (re.union (re.union (re.union (re.union (re.++ (re.++ (re.++ (re.++ (re.++ (re.++ (re.union (str.to_re "J") (str.to_re "j")) (re.union (str.to_re "A") (str.to_re "a"))) (re.union (str.to_re "N") (str.to_re "n"))) (re.union (str.to_re "U") (str.to_re "u"))) (re.union (str.to_re "A") (str.to_re "a"))) (re.union (str.to_re "R") (str.to_re "r"))) (re.union (str.to_re "Y") (str.to_re "y"))) (re.++ (re.++ (re.++ (re.++ (re.++ (re.++ (re.++ (re.union (str.to_re "F") (str.to_re "f")) (re.union (str.to_re "E") (str.to_re "e"))) (re.union (str.to_re "B") (str.to_re "b"))) (re.union (str.to_re "R") (str.to_re "r"))) (re.union (str.to_re "U") (str.to_re "u"))) (re.union (str.to_re "A") (str.to_re "a"))) (re.union (str.to_re "R") (str.to_re "r"))) (re.union (str.to_re "Y") (str.to_re "y")))) (re.++ (re.++ (re.++ (re.++ (re.union (str.to_re "M") (str.to_re "m")) (re.union (str.to_re "A") (str.to_re "a"))) (re.union (str.to_re "R") (str.to_re "r"))) (re.union (str.to_re "C") (str.to_re "c"))) (re.union (str.to_re "H") (str.to_re "h")))) (re.++ (re.++ (re.++ (re.++ (re.union (str.to_re "A") (str.to_re "a")) (re.union (str.to_re "P") (str.to_re "p"))) (re.union (str.to_re "R") (str.to_re "r"))) (re.union (str.to_re "I") (str.to_re "i"))) (re.union (str.to_re "L") (str.to_re "l")))) (re.++ (re.++ (re.union (str.to_re "M") (str.to_re "m")) (re.union (str.to_re "A") (str.to_re "a"))) (re.union (str.to_re "Y") (str.to_re "y")))) (re.++ (re.++ (re.++ (re.union (str.to_re "J") (str.to_re "j")) (re.union (str.to_re "U") (str.to_re "u"))) (re.union (str.to_re "N") (str.to_re "n"))) (re.union (str.to_re "E") (str.to_re "e")))) (re.++ (re.++ (re.++ (re.union (str.to_re "J") (str.to_re "j")) (re.union (str.to_re "U") (str.to_re "u"))) (re.union (str.to_re "L") (str.to_re "l"))) (re.union (str.to_re "Y") (str.to_re "y")))) (re.++ (re.++ (re.++ (re.++ (re.++ (re.union (str.to_re "A") (str.to_re "a")) (re.union (str.to_re "U") (str.to_re "u"))) (re.union (str.to_re "G") (str.to_re "g"))) (re.union (str.to_re "U") (str.to_re "u"))) (re.union (str.to_re "S") (str.to_re "s"))) (re.union (str.to_re "T") (str.to_re "t")))) (re.++ (re.++ (re.++ (re.++ (re.++ (re.++ (re.++ (re.++ (re.union (str.to_re "S") (str.to_re "s")) (re.union (str.to_re "E") (str.to_re "e"))) (re.union (str.to_re "P") (str.to_re "p"))) (re.union (str.to_re "T") (str.to_re "t"))) (re.union (str.to_re "E") (str.to_re "e"))) (re.union (str.to_re "M") (str.to_re "m"))) (re.union (str.to_re "B") (str.to_re "b"))) (re.union (str.to_re "E") (str.to_re "e"))) (re.union (str.to_re "R") (str.to_re "r")))) (re.++ (re.++ (re.++ (re.++ (re.++ (re.++ (re.union (str.to_re "O") (str.to_re "o")) (re.union (str.to_re "C") (str.to_re "c"))) (re.union (str.to_re "T") (str.to_re "t"))) (re.union (str.to_re "O") (str.to_re "o"))) (re.union (str.to_re "B") (str.to_re "b"))) (re.union (str.to_re "E") (str.to_re "e"))) (re.union (str.to_re "R") (str.to_re "r")))) (re.++ (re.++ (re.++ (re.++ (re.++ (re.++ (re.++ (re.union (str.to_re "N") (str.to_re "n")) (re.union (str.to_re "O") (str.to_re "o"))) (re.union (str.to_re "V") (str.to_re "v"))) (re.union (str.to_re "E") (str.to_re "e"))) (re.union (str.to_re "M") (str.to_re "m"))) (re.union (str.to_re "B") (str.to_re "b"))) (re.union (str.to_re "E") (str.to_re "e"))) (re.union (str.to_re "R") (str.to_re "r")))) (re.++ (re.++ (re.++ (re.++ (re.++ (re.++ (re.++ (re.union (str.to_re "D") (str.to_re "d")) (re.union (str.to_re "E") (str.to_re "e"))) (re.union (str.to_re "C") (str.to_re "c"))) (re.union (str.to_re "E") (str.to_re "e"))) (re.union (str.to_re "M") (str.to_re "m"))) (re.union (str.to_re "B") (str.to_re "b"))) (re.union (str.to_re "E") (str.to_re "e"))) (re.union (str.to_re "R") (str.to_re "r"))))) re.all))))
(check-sat)
(get-model)